Maximize
  27 x0_0_ + 27 x0_1_ + 27 x0_2_ + 27 x0_3_ + 27 x0_4_ + 6 x0_5_ + 6 x0_6_
   + 27 x0_7_ + 27 x0_8_ + 27 x0_9_ + 216 x1_5_ + 216 x1_6_ + 102 x2_5_
   + 102 x2_6_ + 216 x3_5_ + 216 x3_6_ + 288 x4_5_ + 288 x4_6_ + 27 x5_0_
   + 27 x5_1_ + 27 x5_2_ + 27 x5_3_ + 27 x5_4_ + 6 x5_5_ + 6 x5_6_
   + 27 x5_7_ + 27 x5_8_ + 27 x5_9_ + 51 x6_5_ + 51 x6_6_ + 54 x7_0_
   + 54 x7_1_ + 54 x7_2_ + 54 x7_3_ + 54 x7_4_ + 12 x7_5_ + 12 x7_6_
   + 54 x7_7_ + 54 x7_8_ + 54 x7_9_ + 360 x8_5_ + 360 x8_6_ + 27 x9_0_
   + 27 x9_1_ + 27 x9_2_ + 27 x9_3_ + 27 x9_4_ + 6 x9_5_ + 6 x9_6_
   + 27 x9_7_ + 27 x9_8_ + 27 x9_9_ + 45 x10_0_ + 45 x10_1_ + 45 x10_2_
   + 45 x10_3_ + 45 x10_4_ + 10 x10_5_ + 10 x10_6_ + 45 x10_7_ + 45 x10_8_
   + 45 x10_9_ + 51 x11_5_ + 51 x11_6_ + 144 x12_5_ + 144 x12_6_
   + 54 x13_0_ + 54 x13_1_ + 54 x13_2_ + 54 x13_3_ + 54 x13_4_ + 12 x13_5_
   + 12 x13_6_ + 54 x13_7_ + 54 x13_8_ + 54 x13_9_ + 18 x14_0_ + 18 x14_1_
   + 18 x14_2_ + 18 x14_3_ + 18 x14_4_ + 4 x14_5_ + 4 x14_6_ + 18 x14_7_
   + 18 x14_8_ + 18 x14_9_ + 288 x15_5_ + 288 x15_6_ + 216 x16_5_
   + 216 x16_6_ + 45 x17_0_ + 45 x17_1_ + 45 x17_2_ + 45 x17_3_ + 45 x17_4_
   + 10 x17_5_ + 10 x17_6_ + 45 x17_7_ + 45 x17_8_ + 45 x17_9_ + 216 x18_5_
   + 216 x18_6_ + 360 x19_5_ + 360 x19_6_ + 144 x20_5_ + 144 x20_6_
   + 144 x21_5_ + 144 x21_6_ + 27 x22_0_ + 27 x22_1_ + 27 x22_2_
   + 27 x22_3_ + 27 x22_4_ + 6 x22_5_ + 6 x22_6_ + 27 x22_7_ + 27 x22_8_
   + 27 x22_9_ + 360 x23_5_ + 360 x23_6_ + 9 x24_0_ + 9 x24_1_ + 9 x24_2_
   + 9 x24_3_ + 9 x24_4_ + 2 x24_5_ + 2 x24_6_ + 9 x24_7_ + 9 x24_8_
   + 9 x24_9_
Subject To
 R0: x0_0_ + x0_1_ + x0_2_ + x0_3_ + x0_4_ + x0_5_ + x0_6_ + x0_7_ + x0_8_
   + x0_9_ + x0_n_ = 1
 R1: x1_5_ + x1_6_ + x1_n_ = 1
 R2: x2_5_ + x2_6_ + x2_n_ = 1
 R3: x3_5_ + x3_6_ + x3_n_ = 1
 R4: x4_5_ + x4_6_ + x4_n_ = 1
 R5: x5_0_ + x5_1_ + x5_2_ + x5_3_ + x5_4_ + x5_5_ + x5_6_ + x5_7_ + x5_8_
   + x5_9_ + x5_n_ = 1
 R6: x6_5_ + x6_6_ + x6_n_ = 1
 R7: x7_0_ + x7_1_ + x7_2_ + x7_3_ + x7_4_ + x7_5_ + x7_6_ + x7_7_ + x7_8_
   + x7_9_ + x7_n_ = 1
 R8: x8_5_ + x8_6_ + x8_n_ = 1
 R9: x9_0_ + x9_1_ + x9_2_ + x9_3_ + x9_4_ + x9_5_ + x9_6_ + x9_7_ + x9_8_
   + x9_9_ + x9_n_ = 1
 R10: x10_0_ + x10_1_ + x10_2_ + x10_3_ + x10_4_ + x10_5_ + x10_6_ + x10_7_
   + x10_8_ + x10_9_ + x10_n_ = 1
 R11: x11_5_ + x11_6_ + x11_n_ = 1
 R12: x12_5_ + x12_6_ + x12_n_ = 1
 R13: x13_0_ + x13_1_ + x13_2_ + x13_3_ + x13_4_ + x13_5_ + x13_6_ + x13_7_
   + x13_8_ + x13_9_ + x13_n_ = 1
 R14: x14_0_ + x14_1_ + x14_2_ + x14_3_ + x14_4_ + x14_5_ + x14_6_ + x14_7_
   + x14_8_ + x14_9_ + x14_n_ = 1
 R15: x15_5_ + x15_6_ + x15_n_ = 1
 R16: x16_5_ + x16_6_ + x16_n_ = 1
 R17: x17_0_ + x17_1_ + x17_2_ + x17_3_ + x17_4_ + x17_5_ + x17_6_ + x17_7_
   + x17_8_ + x17_9_ + x17_n_ = 1
 R18: x18_5_ + x18_6_ + x18_n_ = 1
 R19: x19_5_ + x19_6_ + x19_n_ = 1
 R20: x20_5_ + x20_6_ + x20_n_ = 1
 R21: x21_5_ + x21_6_ + x21_n_ = 1
 R22: x22_0_ + x22_1_ + x22_2_ + x22_3_ + x22_4_ + x22_5_ + x22_6_ + x22_7_
   + x22_8_ + x22_9_ + x22_n_ = 1
 R23: x23_5_ + x23_6_ + x23_n_ = 1
 R24: x24_0_ + x24_1_ + x24_2_ + x24_3_ + x24_4_ + x24_5_ + x24_6_ + x24_7_
   + x24_8_ + x24_9_ + x24_n_ = 1
 R25: x0_0_ + x7_0_ <= 1
 R26: x0_1_ + x7_1_ <= 1
 R27: x0_2_ + x7_2_ <= 1
 R28: x0_3_ + x7_3_ <= 1
 R29: x0_4_ + x7_4_ <= 1
 R30: x0_5_ + x7_5_ <= 1
 R31: x0_6_ + x7_6_ <= 1
 R32: x0_7_ + x7_7_ <= 1
 R33: x0_8_ + x7_8_ <= 1
 R34: x0_9_ + x7_9_ <= 1
 R35: x0_0_ + x10_0_ <= 1
 R36: x0_1_ + x10_1_ <= 1
 R37: x0_2_ + x10_2_ <= 1
 R38: x0_3_ + x10_3_ <= 1
 R39: x0_4_ + x10_4_ <= 1
 R40: x0_5_ + x10_5_ <= 1
 R41: x0_6_ + x10_6_ <= 1
 R42: x0_7_ + x10_7_ <= 1
 R43: x0_8_ + x10_8_ <= 1
 R44: x0_9_ + x10_9_ <= 1
 R45: x0_0_ + x13_0_ <= 1
 R46: x0_1_ + x13_1_ <= 1
 R47: x0_2_ + x13_2_ <= 1
 R48: x0_3_ + x13_3_ <= 1
 R49: x0_4_ + x13_4_ <= 1
 R50: x0_5_ + x13_5_ <= 1
 R51: x0_6_ + x13_6_ <= 1
 R52: x0_7_ + x13_7_ <= 1
 R53: x0_8_ + x13_8_ <= 1
 R54: x0_9_ + x13_9_ <= 1
 R55: x0_0_ + x17_0_ <= 1
 R56: x0_1_ + x17_1_ <= 1
 R57: x0_2_ + x17_2_ <= 1
 R58: x0_3_ + x17_3_ <= 1
 R59: x0_4_ + x17_4_ <= 1
 R60: x0_5_ + x17_5_ <= 1
 R61: x0_6_ + x17_6_ <= 1
 R62: x0_7_ + x17_7_ <= 1
 R63: x0_8_ + x17_8_ <= 1
 R64: x0_9_ + x17_9_ <= 1
 R65: x0_0_ + x22_0_ <= 1
 R66: x0_1_ + x22_1_ <= 1
 R67: x0_2_ + x22_2_ <= 1
 R68: x0_3_ + x22_3_ <= 1
 R69: x0_4_ + x22_4_ <= 1
 R70: x0_5_ + x22_5_ <= 1
 R71: x0_6_ + x22_6_ <= 1
 R72: x0_7_ + x22_7_ <= 1
 R73: x0_8_ + x22_8_ <= 1
 R74: x0_9_ + x22_9_ <= 1
 R75: x1_5_ + x4_5_ <= 1
 R76: x1_6_ + x4_6_ <= 1
 R77: x1_5_ + x5_5_ <= 1
 R78: x1_6_ + x5_6_ <= 1
 R79: x1_5_ + x8_5_ <= 1
 R80: x1_6_ + x8_6_ <= 1
 R81: x1_5_ + x9_5_ <= 1
 R82: x1_6_ + x9_6_ <= 1
 R83: x1_5_ + x14_5_ <= 1
 R84: x1_6_ + x14_6_ <= 1
 R85: x1_5_ + x15_5_ <= 1
 R86: x1_6_ + x15_6_ <= 1
 R87: x1_5_ + x20_5_ <= 1
 R88: x1_6_ + x20_6_ <= 1
 R89: x1_5_ + x24_5_ <= 1
 R90: x1_6_ + x24_6_ <= 1
 R91: x1_5_ + x2_5_ <= 1
 R92: x1_6_ + x2_6_ <= 1
 R93: x2_5_ + x4_5_ <= 1
 R94: x2_6_ + x4_6_ <= 1
 R95: x2_5_ + x5_5_ <= 1
 R96: x2_6_ + x5_6_ <= 1
 R97: x2_5_ + x6_5_ <= 1
 R98: x2_6_ + x6_6_ <= 1
 R99: x2_5_ + x8_5_ <= 1
 R100: x2_6_ + x8_6_ <= 1
 R101: x2_5_ + x9_5_ <= 1
 R102: x2_6_ + x9_6_ <= 1
 R103: x2_5_ + x12_5_ <= 1
 R104: x2_6_ + x12_6_ <= 1
 R105: x2_5_ + x13_5_ <= 1
 R106: x2_6_ + x13_6_ <= 1
 R107: x2_5_ + x14_5_ <= 1
 R108: x2_6_ + x14_6_ <= 1
 R109: x2_5_ + x15_5_ <= 1
 R110: x2_6_ + x15_6_ <= 1
 R111: x2_5_ + x16_5_ <= 1
 R112: x2_6_ + x16_6_ <= 1
 R113: x2_5_ + x20_5_ <= 1
 R114: x2_6_ + x20_6_ <= 1
 R115: x2_5_ + x21_5_ <= 1
 R116: x2_6_ + x21_6_ <= 1
 R117: x2_5_ + x23_5_ <= 1
 R118: x2_6_ + x23_6_ <= 1
 R119: x2_5_ + x24_5_ <= 1
 R120: x2_6_ + x24_6_ <= 1
 R121: x0_5_ + x3_5_ <= 1
 R122: x0_6_ + x3_6_ <= 1
 R123: x3_5_ + x7_5_ <= 1
 R124: x3_6_ + x7_6_ <= 1
 R125: x3_5_ + x10_5_ <= 1
 R126: x3_6_ + x10_6_ <= 1
 R127: x3_5_ + x13_5_ <= 1
 R128: x3_6_ + x13_6_ <= 1
 R129: x3_5_ + x17_5_ <= 1
 R130: x3_6_ + x17_6_ <= 1
 R131: x3_5_ + x18_5_ <= 1
 R132: x3_6_ + x18_6_ <= 1
 R133: x3_5_ + x19_5_ <= 1
 R134: x3_6_ + x19_6_ <= 1
 R135: x3_5_ + x22_5_ <= 1
 R136: x3_6_ + x22_6_ <= 1
 R137: x3_5_ + x23_5_ <= 1
 R138: x3_6_ + x23_6_ <= 1
 R139: x1_5_ + x4_5_ <= 1
 R140: x1_6_ + x4_6_ <= 1
 R141: x4_5_ + x5_5_ <= 1
 R142: x4_6_ + x5_6_ <= 1
 R143: x4_5_ + x8_5_ <= 1
 R144: x4_6_ + x8_6_ <= 1
 R145: x4_5_ + x9_5_ <= 1
 R146: x4_6_ + x9_6_ <= 1
 R147: x4_5_ + x12_5_ <= 1
 R148: x4_6_ + x12_6_ <= 1
 R149: x4_5_ + x14_5_ <= 1
 R150: x4_6_ + x14_6_ <= 1
 R151: x4_5_ + x15_5_ <= 1
 R152: x4_6_ + x15_6_ <= 1
 R153: x4_5_ + x16_5_ <= 1
 R154: x4_6_ + x16_6_ <= 1
 R155: x4_5_ + x20_5_ <= 1
 R156: x4_6_ + x20_6_ <= 1
 R157: x4_5_ + x24_5_ <= 1
 R158: x4_6_ + x24_6_ <= 1
 R159: x5_0_ + x9_0_ <= 1
 R160: x5_1_ + x9_1_ <= 1
 R161: x5_2_ + x9_2_ <= 1
 R162: x5_3_ + x9_3_ <= 1
 R163: x5_4_ + x9_4_ <= 1
 R164: x5_5_ + x9_5_ <= 1
 R165: x5_6_ + x9_6_ <= 1
 R166: x5_7_ + x9_7_ <= 1
 R167: x5_8_ + x9_8_ <= 1
 R168: x5_9_ + x9_9_ <= 1
 R169: x5_0_ + x14_0_ <= 1
 R170: x5_1_ + x14_1_ <= 1
 R171: x5_2_ + x14_2_ <= 1
 R172: x5_3_ + x14_3_ <= 1
 R173: x5_4_ + x14_4_ <= 1
 R174: x5_5_ + x14_5_ <= 1
 R175: x5_6_ + x14_6_ <= 1
 R176: x5_7_ + x14_7_ <= 1
 R177: x5_8_ + x14_8_ <= 1
 R178: x5_9_ + x14_9_ <= 1
 R179: x5_0_ + x24_0_ <= 1
 R180: x5_1_ + x24_1_ <= 1
 R181: x5_2_ + x24_2_ <= 1
 R182: x5_3_ + x24_3_ <= 1
 R183: x5_4_ + x24_4_ <= 1
 R184: x5_5_ + x24_5_ <= 1
 R185: x5_6_ + x24_6_ <= 1
 R186: x5_7_ + x24_7_ <= 1
 R187: x5_8_ + x24_8_ <= 1
 R188: x5_9_ + x24_9_ <= 1
 R189: x2_5_ + x6_5_ <= 1
 R190: x2_6_ + x6_6_ <= 1
 R191: x4_5_ + x6_5_ <= 1
 R192: x4_6_ + x6_6_ <= 1
 R193: x6_5_ + x8_5_ <= 1
 R194: x6_6_ + x8_6_ <= 1
 R195: x6_5_ + x9_5_ <= 1
 R196: x6_6_ + x9_6_ <= 1
 R197: x6_5_ + x12_5_ <= 1
 R198: x6_6_ + x12_6_ <= 1
 R199: x6_5_ + x13_5_ <= 1
 R200: x6_6_ + x13_6_ <= 1
 R201: x6_5_ + x16_5_ <= 1
 R202: x6_6_ + x16_6_ <= 1
 R203: x6_5_ + x21_5_ <= 1
 R204: x6_6_ + x21_6_ <= 1
 R205: x6_5_ + x23_5_ <= 1
 R206: x6_6_ + x23_6_ <= 1
 R207: x0_0_ + x7_0_ <= 1
 R208: x0_1_ + x7_1_ <= 1
 R209: x0_2_ + x7_2_ <= 1
 R210: x0_3_ + x7_3_ <= 1
 R211: x0_4_ + x7_4_ <= 1
 R212: x0_5_ + x7_5_ <= 1
 R213: x0_6_ + x7_6_ <= 1
 R214: x0_7_ + x7_7_ <= 1
 R215: x0_8_ + x7_8_ <= 1
 R216: x0_9_ + x7_9_ <= 1
 R217: x7_0_ + x10_0_ <= 1
 R218: x7_1_ + x10_1_ <= 1
 R219: x7_2_ + x10_2_ <= 1
 R220: x7_3_ + x10_3_ <= 1
 R221: x7_4_ + x10_4_ <= 1
 R222: x7_5_ + x10_5_ <= 1
 R223: x7_6_ + x10_6_ <= 1
 R224: x7_7_ + x10_7_ <= 1
 R225: x7_8_ + x10_8_ <= 1
 R226: x7_9_ + x10_9_ <= 1
 R227: x7_0_ + x13_0_ <= 1
 R228: x7_1_ + x13_1_ <= 1
 R229: x7_2_ + x13_2_ <= 1
 R230: x7_3_ + x13_3_ <= 1
 R231: x7_4_ + x13_4_ <= 1
 R232: x7_5_ + x13_5_ <= 1
 R233: x7_6_ + x13_6_ <= 1
 R234: x7_7_ + x13_7_ <= 1
 R235: x7_8_ + x13_8_ <= 1
 R236: x7_9_ + x13_9_ <= 1
 R237: x7_0_ + x17_0_ <= 1
 R238: x7_1_ + x17_1_ <= 1
 R239: x7_2_ + x17_2_ <= 1
 R240: x7_3_ + x17_3_ <= 1
 R241: x7_4_ + x17_4_ <= 1
 R242: x7_5_ + x17_5_ <= 1
 R243: x7_6_ + x17_6_ <= 1
 R244: x7_7_ + x17_7_ <= 1
 R245: x7_8_ + x17_8_ <= 1
 R246: x7_9_ + x17_9_ <= 1
 R247: x7_0_ + x22_0_ <= 1
 R248: x7_1_ + x22_1_ <= 1
 R249: x7_2_ + x22_2_ <= 1
 R250: x7_3_ + x22_3_ <= 1
 R251: x7_4_ + x22_4_ <= 1
 R252: x7_5_ + x22_5_ <= 1
 R253: x7_6_ + x22_6_ <= 1
 R254: x7_7_ + x22_7_ <= 1
 R255: x7_8_ + x22_8_ <= 1
 R256: x7_9_ + x22_9_ <= 1
 R257: x1_5_ + x8_5_ <= 1
 R258: x1_6_ + x8_6_ <= 1
 R259: x4_5_ + x8_5_ <= 1
 R260: x4_6_ + x8_6_ <= 1
 R261: x5_5_ + x8_5_ <= 1
 R262: x5_6_ + x8_6_ <= 1
 R263: x7_5_ + x8_5_ <= 1
 R264: x7_6_ + x8_6_ <= 1
 R265: x8_5_ + x9_5_ <= 1
 R266: x8_6_ + x9_6_ <= 1
 R267: x8_5_ + x10_5_ <= 1
 R268: x8_6_ + x10_6_ <= 1
 R269: x8_5_ + x12_5_ <= 1
 R270: x8_6_ + x12_6_ <= 1
 R271: x8_5_ + x13_5_ <= 1
 R272: x8_6_ + x13_6_ <= 1
 R273: x8_5_ + x15_5_ <= 1
 R274: x8_6_ + x15_6_ <= 1
 R275: x8_5_ + x16_5_ <= 1
 R276: x8_6_ + x16_6_ <= 1
 R277: x8_5_ + x19_5_ <= 1
 R278: x8_6_ + x19_6_ <= 1
 R279: x8_5_ + x21_5_ <= 1
 R280: x8_6_ + x21_6_ <= 1
 R281: x8_5_ + x23_5_ <= 1
 R282: x8_6_ + x23_6_ <= 1
 R283: x8_5_ + x24_5_ <= 1
 R284: x8_6_ + x24_6_ <= 1
 R285: x5_0_ + x9_0_ <= 1
 R286: x5_1_ + x9_1_ <= 1
 R287: x5_2_ + x9_2_ <= 1
 R288: x5_3_ + x9_3_ <= 1
 R289: x5_4_ + x9_4_ <= 1
 R290: x5_5_ + x9_5_ <= 1
 R291: x5_6_ + x9_6_ <= 1
 R292: x5_7_ + x9_7_ <= 1
 R293: x5_8_ + x9_8_ <= 1
 R294: x5_9_ + x9_9_ <= 1
 R295: x9_0_ + x24_0_ <= 1
 R296: x9_1_ + x24_1_ <= 1
 R297: x9_2_ + x24_2_ <= 1
 R298: x9_3_ + x24_3_ <= 1
 R299: x9_4_ + x24_4_ <= 1
 R300: x9_5_ + x24_5_ <= 1
 R301: x9_6_ + x24_6_ <= 1
 R302: x9_7_ + x24_7_ <= 1
 R303: x9_8_ + x24_8_ <= 1
 R304: x9_9_ + x24_9_ <= 1
 R305: x0_0_ + x10_0_ <= 1
 R306: x0_1_ + x10_1_ <= 1
 R307: x0_2_ + x10_2_ <= 1
 R308: x0_3_ + x10_3_ <= 1
 R309: x0_4_ + x10_4_ <= 1
 R310: x0_5_ + x10_5_ <= 1
 R311: x0_6_ + x10_6_ <= 1
 R312: x0_7_ + x10_7_ <= 1
 R313: x0_8_ + x10_8_ <= 1
 R314: x0_9_ + x10_9_ <= 1
 R315: x7_0_ + x10_0_ <= 1
 R316: x7_1_ + x10_1_ <= 1
 R317: x7_2_ + x10_2_ <= 1
 R318: x7_3_ + x10_3_ <= 1
 R319: x7_4_ + x10_4_ <= 1
 R320: x7_5_ + x10_5_ <= 1
 R321: x7_6_ + x10_6_ <= 1
 R322: x7_7_ + x10_7_ <= 1
 R323: x7_8_ + x10_8_ <= 1
 R324: x7_9_ + x10_9_ <= 1
 R325: x10_0_ + x13_0_ <= 1
 R326: x10_1_ + x13_1_ <= 1
 R327: x10_2_ + x13_2_ <= 1
 R328: x10_3_ + x13_3_ <= 1
 R329: x10_4_ + x13_4_ <= 1
 R330: x10_5_ + x13_5_ <= 1
 R331: x10_6_ + x13_6_ <= 1
 R332: x10_7_ + x13_7_ <= 1
 R333: x10_8_ + x13_8_ <= 1
 R334: x10_9_ + x13_9_ <= 1
 R335: x10_0_ + x17_0_ <= 1
 R336: x10_1_ + x17_1_ <= 1
 R337: x10_2_ + x17_2_ <= 1
 R338: x10_3_ + x17_3_ <= 1
 R339: x10_4_ + x17_4_ <= 1
 R340: x10_5_ + x17_5_ <= 1
 R341: x10_6_ + x17_6_ <= 1
 R342: x10_7_ + x17_7_ <= 1
 R343: x10_8_ + x17_8_ <= 1
 R344: x10_9_ + x17_9_ <= 1
 R345: x10_0_ + x22_0_ <= 1
 R346: x10_1_ + x22_1_ <= 1
 R347: x10_2_ + x22_2_ <= 1
 R348: x10_3_ + x22_3_ <= 1
 R349: x10_4_ + x22_4_ <= 1
 R350: x10_5_ + x22_5_ <= 1
 R351: x10_6_ + x22_6_ <= 1
 R352: x10_7_ + x22_7_ <= 1
 R353: x10_8_ + x22_8_ <= 1
 R354: x10_9_ + x22_9_ <= 1
 R355: x0_5_ + x11_5_ <= 1
 R356: x0_6_ + x11_6_ <= 1
 R357: x3_5_ + x11_5_ <= 1
 R358: x3_6_ + x11_6_ <= 1
 R359: x7_5_ + x11_5_ <= 1
 R360: x7_6_ + x11_6_ <= 1
 R361: x10_5_ + x11_5_ <= 1
 R362: x10_6_ + x11_6_ <= 1
 R363: x11_5_ + x13_5_ <= 1
 R364: x11_6_ + x13_6_ <= 1
 R365: x11_5_ + x17_5_ <= 1
 R366: x11_6_ + x17_6_ <= 1
 R367: x11_5_ + x18_5_ <= 1
 R368: x11_6_ + x18_6_ <= 1
 R369: x11_5_ + x19_5_ <= 1
 R370: x11_6_ + x19_6_ <= 1
 R371: x11_5_ + x22_5_ <= 1
 R372: x11_6_ + x22_6_ <= 1
 R373: x11_5_ + x23_5_ <= 1
 R374: x11_6_ + x23_6_ <= 1
 R375: x4_5_ + x12_5_ <= 1
 R376: x4_6_ + x12_6_ <= 1
 R377: x8_5_ + x12_5_ <= 1
 R378: x8_6_ + x12_6_ <= 1
 R379: x9_5_ + x12_5_ <= 1
 R380: x9_6_ + x12_6_ <= 1
 R381: x12_5_ + x16_5_ <= 1
 R382: x12_6_ + x16_6_ <= 1
 R383: x12_5_ + x21_5_ <= 1
 R384: x12_6_ + x21_6_ <= 1
 R385: x0_0_ + x13_0_ <= 1
 R386: x0_1_ + x13_1_ <= 1
 R387: x0_2_ + x13_2_ <= 1
 R388: x0_3_ + x13_3_ <= 1
 R389: x0_4_ + x13_4_ <= 1
 R390: x0_5_ + x13_5_ <= 1
 R391: x0_6_ + x13_6_ <= 1
 R392: x0_7_ + x13_7_ <= 1
 R393: x0_8_ + x13_8_ <= 1
 R394: x0_9_ + x13_9_ <= 1
 R395: x7_0_ + x13_0_ <= 1
 R396: x7_1_ + x13_1_ <= 1
 R397: x7_2_ + x13_2_ <= 1
 R398: x7_3_ + x13_3_ <= 1
 R399: x7_4_ + x13_4_ <= 1
 R400: x7_5_ + x13_5_ <= 1
 R401: x7_6_ + x13_6_ <= 1
 R402: x7_7_ + x13_7_ <= 1
 R403: x7_8_ + x13_8_ <= 1
 R404: x7_9_ + x13_9_ <= 1
 R405: x10_0_ + x13_0_ <= 1
 R406: x10_1_ + x13_1_ <= 1
 R407: x10_2_ + x13_2_ <= 1
 R408: x10_3_ + x13_3_ <= 1
 R409: x10_4_ + x13_4_ <= 1
 R410: x10_5_ + x13_5_ <= 1
 R411: x10_6_ + x13_6_ <= 1
 R412: x10_7_ + x13_7_ <= 1
 R413: x10_8_ + x13_8_ <= 1
 R414: x10_9_ + x13_9_ <= 1
 R415: x13_0_ + x17_0_ <= 1
 R416: x13_1_ + x17_1_ <= 1
 R417: x13_2_ + x17_2_ <= 1
 R418: x13_3_ + x17_3_ <= 1
 R419: x13_4_ + x17_4_ <= 1
 R420: x13_5_ + x17_5_ <= 1
 R421: x13_6_ + x17_6_ <= 1
 R422: x13_7_ + x17_7_ <= 1
 R423: x13_8_ + x17_8_ <= 1
 R424: x13_9_ + x17_9_ <= 1
 R425: x13_0_ + x22_0_ <= 1
 R426: x13_1_ + x22_1_ <= 1
 R427: x13_2_ + x22_2_ <= 1
 R428: x13_3_ + x22_3_ <= 1
 R429: x13_4_ + x22_4_ <= 1
 R430: x13_5_ + x22_5_ <= 1
 R431: x13_6_ + x22_6_ <= 1
 R432: x13_7_ + x22_7_ <= 1
 R433: x13_8_ + x22_8_ <= 1
 R434: x13_9_ + x22_9_ <= 1
 R435: x5_0_ + x14_0_ <= 1
 R436: x5_1_ + x14_1_ <= 1
 R437: x5_2_ + x14_2_ <= 1
 R438: x5_3_ + x14_3_ <= 1
 R439: x5_4_ + x14_4_ <= 1
 R440: x5_5_ + x14_5_ <= 1
 R441: x5_6_ + x14_6_ <= 1
 R442: x5_7_ + x14_7_ <= 1
 R443: x5_8_ + x14_8_ <= 1
 R444: x5_9_ + x14_9_ <= 1
 R445: x1_5_ + x15_5_ <= 1
 R446: x1_6_ + x15_6_ <= 1
 R447: x4_5_ + x15_5_ <= 1
 R448: x4_6_ + x15_6_ <= 1
 R449: x5_5_ + x15_5_ <= 1
 R450: x5_6_ + x15_6_ <= 1
 R451: x8_5_ + x15_5_ <= 1
 R452: x8_6_ + x15_6_ <= 1
 R453: x9_5_ + x15_5_ <= 1
 R454: x9_6_ + x15_6_ <= 1
 R455: x14_5_ + x15_5_ <= 1
 R456: x14_6_ + x15_6_ <= 1
 R457: x15_5_ + x20_5_ <= 1
 R458: x15_6_ + x20_6_ <= 1
 R459: x15_5_ + x24_5_ <= 1
 R460: x15_6_ + x24_6_ <= 1
 R461: x4_5_ + x16_5_ <= 1
 R462: x4_6_ + x16_6_ <= 1
 R463: x8_5_ + x16_5_ <= 1
 R464: x8_6_ + x16_6_ <= 1
 R465: x9_5_ + x16_5_ <= 1
 R466: x9_6_ + x16_6_ <= 1
 R467: x12_5_ + x16_5_ <= 1
 R468: x12_6_ + x16_6_ <= 1
 R469: x13_5_ + x16_5_ <= 1
 R470: x13_6_ + x16_6_ <= 1
 R471: x16_5_ + x21_5_ <= 1
 R472: x16_6_ + x21_6_ <= 1
 R473: x16_5_ + x23_5_ <= 1
 R474: x16_6_ + x23_6_ <= 1
 R475: x0_0_ + x17_0_ <= 1
 R476: x0_1_ + x17_1_ <= 1
 R477: x0_2_ + x17_2_ <= 1
 R478: x0_3_ + x17_3_ <= 1
 R479: x0_4_ + x17_4_ <= 1
 R480: x0_5_ + x17_5_ <= 1
 R481: x0_6_ + x17_6_ <= 1
 R482: x0_7_ + x17_7_ <= 1
 R483: x0_8_ + x17_8_ <= 1
 R484: x0_9_ + x17_9_ <= 1
 R485: x7_0_ + x17_0_ <= 1
 R486: x7_1_ + x17_1_ <= 1
 R487: x7_2_ + x17_2_ <= 1
 R488: x7_3_ + x17_3_ <= 1
 R489: x7_4_ + x17_4_ <= 1
 R490: x7_5_ + x17_5_ <= 1
 R491: x7_6_ + x17_6_ <= 1
 R492: x7_7_ + x17_7_ <= 1
 R493: x7_8_ + x17_8_ <= 1
 R494: x7_9_ + x17_9_ <= 1
 R495: x10_0_ + x17_0_ <= 1
 R496: x10_1_ + x17_1_ <= 1
 R497: x10_2_ + x17_2_ <= 1
 R498: x10_3_ + x17_3_ <= 1
 R499: x10_4_ + x17_4_ <= 1
 R500: x10_5_ + x17_5_ <= 1
 R501: x10_6_ + x17_6_ <= 1
 R502: x10_7_ + x17_7_ <= 1
 R503: x10_8_ + x17_8_ <= 1
 R504: x10_9_ + x17_9_ <= 1
 R505: x13_0_ + x17_0_ <= 1
 R506: x13_1_ + x17_1_ <= 1
 R507: x13_2_ + x17_2_ <= 1
 R508: x13_3_ + x17_3_ <= 1
 R509: x13_4_ + x17_4_ <= 1
 R510: x13_5_ + x17_5_ <= 1
 R511: x13_6_ + x17_6_ <= 1
 R512: x13_7_ + x17_7_ <= 1
 R513: x13_8_ + x17_8_ <= 1
 R514: x13_9_ + x17_9_ <= 1
 R515: x17_0_ + x22_0_ <= 1
 R516: x17_1_ + x22_1_ <= 1
 R517: x17_2_ + x22_2_ <= 1
 R518: x17_3_ + x22_3_ <= 1
 R519: x17_4_ + x22_4_ <= 1
 R520: x17_5_ + x22_5_ <= 1
 R521: x17_6_ + x22_6_ <= 1
 R522: x17_7_ + x22_7_ <= 1
 R523: x17_8_ + x22_8_ <= 1
 R524: x17_9_ + x22_9_ <= 1
 R525: x0_5_ + x18_5_ <= 1
 R526: x0_6_ + x18_6_ <= 1
 R527: x3_5_ + x18_5_ <= 1
 R528: x3_6_ + x18_6_ <= 1
 R529: x7_5_ + x18_5_ <= 1
 R530: x7_6_ + x18_6_ <= 1
 R531: x10_5_ + x18_5_ <= 1
 R532: x10_6_ + x18_6_ <= 1
 R533: x13_5_ + x18_5_ <= 1
 R534: x13_6_ + x18_6_ <= 1
 R535: x17_5_ + x18_5_ <= 1
 R536: x17_6_ + x18_6_ <= 1
 R537: x18_5_ + x19_5_ <= 1
 R538: x18_6_ + x19_6_ <= 1
 R539: x18_5_ + x22_5_ <= 1
 R540: x18_6_ + x22_6_ <= 1
 R541: x18_5_ + x23_5_ <= 1
 R542: x18_6_ + x23_6_ <= 1
 R543: x0_5_ + x19_5_ <= 1
 R544: x0_6_ + x19_6_ <= 1
 R545: x3_5_ + x19_5_ <= 1
 R546: x3_6_ + x19_6_ <= 1
 R547: x7_5_ + x19_5_ <= 1
 R548: x7_6_ + x19_6_ <= 1
 R549: x8_5_ + x19_5_ <= 1
 R550: x8_6_ + x19_6_ <= 1
 R551: x10_5_ + x19_5_ <= 1
 R552: x10_6_ + x19_6_ <= 1
 R553: x13_5_ + x19_5_ <= 1
 R554: x13_6_ + x19_6_ <= 1
 R555: x17_5_ + x19_5_ <= 1
 R556: x17_6_ + x19_6_ <= 1
 R557: x18_5_ + x19_5_ <= 1
 R558: x18_6_ + x19_6_ <= 1
 R559: x19_5_ + x22_5_ <= 1
 R560: x19_6_ + x22_6_ <= 1
 R561: x19_5_ + x23_5_ <= 1
 R562: x19_6_ + x23_6_ <= 1
 R563: x1_5_ + x20_5_ <= 1
 R564: x1_6_ + x20_6_ <= 1
 R565: x4_5_ + x20_5_ <= 1
 R566: x4_6_ + x20_6_ <= 1
 R567: x5_5_ + x20_5_ <= 1
 R568: x5_6_ + x20_6_ <= 1
 R569: x14_5_ + x20_5_ <= 1
 R570: x14_6_ + x20_6_ <= 1
 R571: x15_5_ + x20_5_ <= 1
 R572: x15_6_ + x20_6_ <= 1
 R573: x8_5_ + x21_5_ <= 1
 R574: x8_6_ + x21_6_ <= 1
 R575: x9_5_ + x21_5_ <= 1
 R576: x9_6_ + x21_6_ <= 1
 R577: x12_5_ + x21_5_ <= 1
 R578: x12_6_ + x21_6_ <= 1
 R579: x13_5_ + x21_5_ <= 1
 R580: x13_6_ + x21_6_ <= 1
 R581: x16_5_ + x21_5_ <= 1
 R582: x16_6_ + x21_6_ <= 1
 R583: x21_5_ + x23_5_ <= 1
 R584: x21_6_ + x23_6_ <= 1
 R585: x0_0_ + x22_0_ <= 1
 R586: x0_1_ + x22_1_ <= 1
 R587: x0_2_ + x22_2_ <= 1
 R588: x0_3_ + x22_3_ <= 1
 R589: x0_4_ + x22_4_ <= 1
 R590: x0_5_ + x22_5_ <= 1
 R591: x0_6_ + x22_6_ <= 1
 R592: x0_7_ + x22_7_ <= 1
 R593: x0_8_ + x22_8_ <= 1
 R594: x0_9_ + x22_9_ <= 1
 R595: x7_0_ + x22_0_ <= 1
 R596: x7_1_ + x22_1_ <= 1
 R597: x7_2_ + x22_2_ <= 1
 R598: x7_3_ + x22_3_ <= 1
 R599: x7_4_ + x22_4_ <= 1
 R600: x7_5_ + x22_5_ <= 1
 R601: x7_6_ + x22_6_ <= 1
 R602: x7_7_ + x22_7_ <= 1
 R603: x7_8_ + x22_8_ <= 1
 R604: x7_9_ + x22_9_ <= 1
 R605: x10_0_ + x22_0_ <= 1
 R606: x10_1_ + x22_1_ <= 1
 R607: x10_2_ + x22_2_ <= 1
 R608: x10_3_ + x22_3_ <= 1
 R609: x10_4_ + x22_4_ <= 1
 R610: x10_5_ + x22_5_ <= 1
 R611: x10_6_ + x22_6_ <= 1
 R612: x10_7_ + x22_7_ <= 1
 R613: x10_8_ + x22_8_ <= 1
 R614: x10_9_ + x22_9_ <= 1
 R615: x13_0_ + x22_0_ <= 1
 R616: x13_1_ + x22_1_ <= 1
 R617: x13_2_ + x22_2_ <= 1
 R618: x13_3_ + x22_3_ <= 1
 R619: x13_4_ + x22_4_ <= 1
 R620: x13_5_ + x22_5_ <= 1
 R621: x13_6_ + x22_6_ <= 1
 R622: x13_7_ + x22_7_ <= 1
 R623: x13_8_ + x22_8_ <= 1
 R624: x13_9_ + x22_9_ <= 1
 R625: x17_0_ + x22_0_ <= 1
 R626: x17_1_ + x22_1_ <= 1
 R627: x17_2_ + x22_2_ <= 1
 R628: x17_3_ + x22_3_ <= 1
 R629: x17_4_ + x22_4_ <= 1
 R630: x17_5_ + x22_5_ <= 1
 R631: x17_6_ + x22_6_ <= 1
 R632: x17_7_ + x22_7_ <= 1
 R633: x17_8_ + x22_8_ <= 1
 R634: x17_9_ + x22_9_ <= 1
 R635: x0_5_ + x23_5_ <= 1
 R636: x0_6_ + x23_6_ <= 1
 R637: x3_5_ + x23_5_ <= 1
 R638: x3_6_ + x23_6_ <= 1
 R639: x7_5_ + x23_5_ <= 1
 R640: x7_6_ + x23_6_ <= 1
 R641: x8_5_ + x23_5_ <= 1
 R642: x8_6_ + x23_6_ <= 1
 R643: x10_5_ + x23_5_ <= 1
 R644: x10_6_ + x23_6_ <= 1
 R645: x13_5_ + x23_5_ <= 1
 R646: x13_6_ + x23_6_ <= 1
 R647: x16_5_ + x23_5_ <= 1
 R648: x16_6_ + x23_6_ <= 1
 R649: x17_5_ + x23_5_ <= 1
 R650: x17_6_ + x23_6_ <= 1
 R651: x18_5_ + x23_5_ <= 1
 R652: x18_6_ + x23_6_ <= 1
 R653: x19_5_ + x23_5_ <= 1
 R654: x19_6_ + x23_6_ <= 1
 R655: x21_5_ + x23_5_ <= 1
 R656: x21_6_ + x23_6_ <= 1
 R657: x22_5_ + x23_5_ <= 1
 R658: x22_6_ + x23_6_ <= 1
 R659: x5_0_ + x24_0_ <= 1
 R660: x5_1_ + x24_1_ <= 1
 R661: x5_2_ + x24_2_ <= 1
 R662: x5_3_ + x24_3_ <= 1
 R663: x5_4_ + x24_4_ <= 1
 R664: x5_5_ + x24_5_ <= 1
 R665: x5_6_ + x24_6_ <= 1
 R666: x5_7_ + x24_7_ <= 1
 R667: x5_8_ + x24_8_ <= 1
 R668: x5_9_ + x24_9_ <= 1
 R669: x9_0_ + x24_0_ <= 1
 R670: x9_1_ + x24_1_ <= 1
 R671: x9_2_ + x24_2_ <= 1
 R672: x9_3_ + x24_3_ <= 1
 R673: x9_4_ + x24_4_ <= 1
 R674: x9_5_ + x24_5_ <= 1
 R675: x9_6_ + x24_6_ <= 1
 R676: x9_7_ + x24_7_ <= 1
 R677: x9_8_ + x24_8_ <= 1
 R678: x9_9_ + x24_9_ <= 1
 R679: <= 1
 R680: 27 x0_0_ + 27 x0_1_ + 27 x0_2_ + 27 x0_3_ + 27 x0_4_ + 6 x0_5_
   + 6 x0_6_ + 27 x0_7_ + 27 x0_8_ + 27 x0_9_ + 216 x1_5_ + 216 x1_6_
   + 102 x2_5_ + 102 x2_6_ + 216 x3_5_ + 216 x3_6_ + 288 x4_5_ + 288 x4_6_
   + 27 x5_0_ + 27 x5_1_ + 27 x5_2_ + 27 x5_3_ + 27 x5_4_ + 6 x5_5_
   + 6 x5_6_ + 27 x5_7_ + 27 x5_8_ + 27 x5_9_ + 51 x6_5_ + 51 x6_6_
   + 54 x7_0_ + 54 x7_1_ + 54 x7_2_ + 54 x7_3_ + 54 x7_4_ + 12 x7_5_
   + 12 x7_6_ + 54 x7_7_ + 54 x7_8_ + 54 x7_9_ + 360 x8_5_ + 360 x8_6_
   + 27 x9_0_ + 27 x9_1_ + 27 x9_2_ + 27 x9_3_ + 27 x9_4_ + 6 x9_5_
   + 6 x9_6_ + 27 x9_7_ + 27 x9_8_ + 27 x9_9_ + 45 x10_0_ + 45 x10_1_
   + 45 x10_2_ + 45 x10_3_ + 45 x10_4_ + 10 x10_5_ + 10 x10_6_ + 45 x10_7_
   + 45 x10_8_ + 45 x10_9_ + 51 x11_5_ + 51 x11_6_ + 144 x12_5_
   + 144 x12_6_ + 54 x13_0_ + 54 x13_1_ + 54 x13_2_ + 54 x13_3_ + 54 x13_4_
   + 12 x13_5_ + 12 x13_6_ + 54 x13_7_ + 54 x13_8_ + 54 x13_9_ + 18 x14_0_
   + 18 x14_1_ + 18 x14_2_ + 18 x14_3_ + 18 x14_4_ + 4 x14_5_ + 4 x14_6_
   + 18 x14_7_ + 18 x14_8_ + 18 x14_9_ + 288 x15_5_ + 288 x15_6_
   + 216 x16_5_ + 216 x16_6_ + 45 x17_0_ + 45 x17_1_ + 45 x17_2_
   + 45 x17_3_ + 45 x17_4_ + 10 x17_5_ + 10 x17_6_ + 45 x17_7_ + 45 x17_8_
   + 45 x17_9_ + 216 x18_5_ + 216 x18_6_ + 360 x19_5_ + 360 x19_6_
   + 144 x20_5_ + 144 x20_6_ + 144 x21_5_ + 144 x21_6_ + 27 x22_0_
   + 27 x22_1_ + 27 x22_2_ + 27 x22_3_ + 27 x22_4_ + 6 x22_5_ + 6 x22_6_
   + 27 x22_7_ + 27 x22_8_ + 27 x22_9_ + 360 x23_5_ + 360 x23_6_ + 9 x24_0_
   + 9 x24_1_ + 9 x24_2_ + 9 x24_3_ + 9 x24_4_ + 2 x24_5_ + 2 x24_6_
   + 9 x24_7_ + 9 x24_8_ + 9 x24_9_ >= 1917
 R681: x0_8_ + x1_n_ + x2_n_ + x3_5_ + x4_n_ + x5_3_ + x6_n_ + x7_7_
   + x8_5_ + x9_0_ + x10_1_ + x11_n_ + x12_n_ + x13_3_ + x14_4_ + x15_6_
   + x16_6_ + x17_2_ + x18_n_ + x19_6_ + x20_5_ + x21_n_ + x22_0_ + x23_n_
   + x24_4_ <= 24
 R682: x0_9_ + x1_n_ + x2_n_ + x3_6_ + x4_n_ + x5_3_ + x6_n_ + x7_8_
   + x8_6_ + x9_1_ + x10_0_ + x11_n_ + x12_n_ + x13_3_ + x14_4_ + x15_5_
   + x16_5_ + x17_2_ + x18_n_ + x19_5_ + x20_6_ + x21_n_ + x22_1_ + x23_n_
   + x24_4_ <= 24
Bounds
Binaries
 x0_0_ x0_1_ x0_2_ x0_3_ x0_4_ x0_5_ x0_6_ x0_7_ x0_8_ x0_9_ x0_n_ x1_5_
 x1_6_ x1_n_ x2_5_ x2_6_ x2_n_ x3_5_ x3_6_ x3_n_ x4_5_ x4_6_ x4_n_ x5_0_
 x5_1_ x5_2_ x5_3_ x5_4_ x5_5_ x5_6_ x5_7_ x5_8_ x5_9_ x5_n_ x6_5_ x6_6_
 x6_n_ x7_0_ x7_1_ x7_2_ x7_3_ x7_4_ x7_5_ x7_6_ x7_7_ x7_8_ x7_9_ x7_n_
 x8_5_ x8_6_ x8_n_ x9_0_ x9_1_ x9_2_ x9_3_ x9_4_ x9_5_ x9_6_ x9_7_ x9_8_
 x9_9_ x9_n_ x10_0_ x10_1_ x10_2_ x10_3_ x10_4_ x10_5_ x10_6_ x10_7_ x10_8_
 x10_9_ x10_n_ x11_5_ x11_6_ x11_n_ x12_5_ x12_6_ x12_n_ x13_0_ x13_1_
 x13_2_ x13_3_ x13_4_ x13_5_ x13_6_ x13_7_ x13_8_ x13_9_ x13_n_ x14_0_
 x14_1_ x14_2_ x14_3_ x14_4_ x14_5_ x14_6_ x14_7_ x14_8_ x14_9_ x14_n_
 x15_5_ x15_6_ x15_n_ x16_5_ x16_6_ x16_n_ x17_0_ x17_1_ x17_2_ x17_3_
 x17_4_ x17_5_ x17_6_ x17_7_ x17_8_ x17_9_ x17_n_ x18_5_ x18_6_ x18_n_
 x19_5_ x19_6_ x19_n_ x20_5_ x20_6_ x20_n_ x21_5_ x21_6_ x21_n_ x22_0_
 x22_1_ x22_2_ x22_3_ x22_4_ x22_5_ x22_6_ x22_7_ x22_8_ x22_9_ x22_n_
 x23_5_ x23_6_ x23_n_ x24_0_ x24_1_ x24_2_ x24_3_ x24_4_ x24_5_ x24_6_
 x24_7_ x24_8_ x24_9_ x24_n_
End
